
Gurobi 9.1.2 (linux64) logging started Tue Apr 12 19:53:43 2022

Changed value of parameter LogFile to ls_sym_v-(3, 5).log
   Prev:   Default: 
Changed value of parameter MIPFocus to 1
   Prev: 0  Min: 0  Max: 3  Default: 0
Changed value of parameter TimeLimit to 10800.0
   Prev: inf  Min: 0.0  Max: inf  Default: inf
Warning: variable name "X[(0, 2),(0, 0)]" has a space
Warning: constraint name "flow-constr-t0-v(3, 5)" has a space
Warning: to let Gurobi read it back, use rlp format
Gurobi Optimizer version 9.1.2 build v9.1.2rc0 (linux64)
Thread count: 32 physical cores, 64 logical processors, using up to 32 threads
Optimize a model with 4807 rows, 4352 columns and 16496 nonzeros
Model fingerprint: 0x4333baad
Variable types: 512 continuous, 3840 integer (3840 binary)
Coefficient statistics:
  Matrix range     [1e+00, 7e+04]
  Objective range  [1e-01, 1e-01]
  Bounds range     [1e+00, 3e+04]
  RHS range        [1e+00, 7e+04]
Presolve removed 499 rows and 528 columns
Presolve time: 0.11s
Presolved: 4308 rows, 3824 columns, 23246 nonzeros
Variable types: 512 continuous, 3312 integer (3312 binary)
Found heuristic solution: objective 4286.9999998

Root relaxation: objective 6.400000e+01, 142 iterations, 0.00 seconds

    Nodes    |    Current Node    |     Objective Bounds      |     Work
 Expl Unexpl |  Obj  Depth IntInf | Incumbent    BestBd   Gap | It/Node Time

     0     0   64.00000    0   34 4287.00000   64.00000  98.5%     -    0s
H    0     0                    1133.2499999   64.00000  94.4%     -    0s
H    0     0                    1102.3749999   64.00000  94.2%     -    0s
H    0     0                     149.6250000   64.00000  57.2%     -    0s
     0     0   64.00000    0   88  149.62500   64.00000  57.2%     -    0s
H    0     0                     127.8750000   64.00000  50.0%     -    0s
H    0     0                     116.8750000   64.00000  45.2%     -    0s
     0     0   64.00000    0  103  116.87500   64.00000  45.2%     -    0s
H    0     0                     116.6250000   64.00000  45.1%     -    0s
H    0     0                     104.2500000   64.00000  38.6%     -    0s
     0     0   64.00000    0   44  104.25000   64.00000  38.6%     -    0s
H    0     0                     104.0000000   64.00000  38.5%     -    1s
     0     0   64.00000    0   70  104.00000   64.00000  38.5%     -    1s
H    0     0                      98.3750000   64.00000  34.9%     -    1s
     0     0   64.00000    0   26   98.37500   64.00000  34.9%     -    1s
H    0     0                      82.3750000   64.00000  22.3%     -    1s
H    0     0                      81.8333333   64.00000  21.8%     -    1s
     0     0   64.00000    0   38   81.83333   64.00000  21.8%     -    1s
     0     0   64.00000    0   83   81.83333   64.00000  21.8%     -    1s
     0     0   64.00000    0   32   81.83333   64.00000  21.8%     -    1s
H    0     0                      78.2734375   64.00000  18.2%     -    2s
     0     2   64.00000    0   30   78.27344   64.00000  18.2%     -    2s
H    1     4                      75.4796875   64.00000  15.2%   578    2s
H    2     4                      74.9583333   64.00000  14.6%   290    2s
H   31    52                      73.9204545   64.00000  13.4%  31.4    3s
H   33    52                      73.2389323   64.00000  12.6%  29.5    3s
H   38    52                      72.7083333   64.00000  12.0%  25.8    3s
H   39    52                      71.7304687   64.00000  10.8%  25.1    3s
H   93   112                      71.4375000   64.00000  10.4%  11.9    3s

Cutting planes:
  Learned: 1
  Cover: 13
  Implied bound: 28
  Clique: 4
  MIR: 8
  Flow cover: 16
  RLT: 6
  Relax-and-lift: 14

Explored 125 nodes (13101 simplex iterations) in 3.78 seconds
Thread count was 32 (of 64 available processors)

Solution count 10: 71.4375 71.7305 72.7083 ... 82.375

Solve interrupted
Best objective 7.143749999999e+01, best bound 6.400000000000e+01, gap 10.4112%
